NAME: tsp20_25
COMMENT: 20-tsp problem (Padberg/Rinaldi)
TYPE: TSP
DIMENSION: 20
EDGE_WEIGHT_TYPE : EUC_2D
NODE_COORD_SECTION
1 28 19
2 19 28
3 7 3
4 23 9
5 17 12
6 17 19
7 33 10
8 14 6
9 2 19
10 17 15
11 22 20
12 5 3
13 32 24
14 36 15
15 7 27
16 33 7
17 24 31
18 38 12
19 2 5
20 14 11
